//Dat File

outFile="MPVSBPP_SET1_IT1000_ITV1_NT2_TS3_WT1_VT1_REP1";
m=1000;
o=498;
p=3;
numVTypes=3;

demand = [7, 7, 1, 1, 6, 8, 8, 10, 11, 5, 6, 7, 5, 10, 8, 10, 10, 7, 2, 7, 3, 4, 9, 5, 9, 8, 1, 4, 5, 5, 5, 10, 6, 1, 7, 4, 4, 9, 3, 11, 8, 8, 4, 4, 10, 1, 6, 10, 6, 10, 6, 7, 11, 1, 6, 10, 1, 4, 3, 3, 4, 8, 3, 5, 7, 9, 9, 1, 4, 8, 3, 7, 2, 10, 4, 1, 9, 11, 8, 4, 10, 1, 6, 10, 8, 7, 1, 8, 7, 11, 7, 2, 6, 9, 8, 1, 1, 6, 3, 6, 11, 6, 4, 10, 10, 5, 6, 10, 11, 2, 5, 9, 3, 4, 7, 2, 8, 4, 9, 1, 4, 4, 3, 11, 5, 1, 4, 2, 9, 7, 3, 8, 6, 2, 6, 5, 3, 3, 8, 7, 8, 7, 4, 6, 2, 1, 4, 11, 8, 6, 9, 1, 4, 10, 2, 1, 7, 9, 8, 5, 6, 1, 8, 10, 9, 4, 1, 3, 8, 9, 2, 6, 6, 7, 9, 2, 3, 6, 3, 5, 2, 10, 5, 11, 5, 9, 4, 1, 8, 11, 1, 9, 10, 6, 11, 8, 11, 1, 8, 5, 10, 8, 2, 6, 10, 7, 5, 8, 5, 1, 11, 1, 6, 3, 2, 8, 10, 5, 11, 3, 8, 7, 8, 8, 8, 10, 10, 8, 10, 8, 10, 8, 3, 1, 9, 6, 3, 1, 5, 5, 4, 5, 8, 9, 1, 3, 9, 7, 7, 6, 10, 2, 1, 7, 5, 1, 7, 7, 7, 9, 3, 1, 6, 5, 3, 2, 4, 6, 5, 4, 8, 4, 11, 3, 2, 2, 1, 11, 6, 7, 11, 6, 7, 4, 8, 8, 1, 2, 3, 4, 7, 3, 4, 1, 5, 5, 6, 3, 4, 4, 11, 8, 10, 2, 3, 1, 1, 8, 3, 7, 6, 9, 11, 10, 11, 9, 9, 5, 2, 4, 5, 3, 11, 3, 1, 8, 8, 4, 8, 5, 4, 7, 10, 5, 5, 5, 1, 5, 1, 7, 11, 5, 1, 8, 5, 3, 1, 7, 10, 9, 3, 3, 8, 7, 7, 4, 3, 1, 7, 7, 7, 1, 1, 10, 3, 11, 1, 3, 1, 10, 1, 4, 10, 9, 11, 1, 2, 10, 8, 5, 8, 7, 4, 6, 11, 7, 7, 5, 6, 5, 8, 1, 10, 6, 8, 2, 9, 11, 5, 3, 11, 4, 1, 7, 11, 7, 1, 7, 4, 7, 4, 5, 3, 9, 10, 10, 4, 1, 4, 11, 10, 10, 5, 8, 10, 3, 11, 10, 11, 2, 6, 5, 1, 11, 10, 5, 3, 11, 5, 2, 11, 3, 11, 6, 8, 8, 10, 3, 7, 7, 4, 3, 11, 4, 9, 9, 11, 5, 5, 4, 9, 10, 6, 2, 9, 7, 8, 11, 5, 5, 9, 1, 1, 8, 6, 2, 7, 4, 3, 1, 2, 3, 1, 11, 11, 3, 2, 11, 2, 8, 7, 9, 10, 10, 6, 3, 3, 6, 11, 4, 7, 5, 3, 6, 11, 7, 1, 2, 6, 2, 9, 10, 2, 8, 11, 10, 10, 8, 1, 5, 5, 9, 10, 7, 2, 7, 8, 11, 1, 3, 6, 4, 11, 7, 7, 8, 2, 10, 6, 5, 4, 9, 3, 9, 3, 2, 9, 8, 6, 2, 3, 9, 1, 4, 1, 6, 3, 11, 11, 4, 9, 2, 7, 5, 11, 11, 7, 10, 3, 11, 2, 2, 9, 6, 9, 1, 10, 11, 5, 3, 9, 7, 2, 9, 8, 9, 4, 2, 3, 7, 9, 1, 5, 1, 4, 8, 4, 1, 10, 10, 3, 10, 1, 8, 10, 9, 1, 2, 10, 10, 7, 11, 10, 10, 5, 3, 10, 6, 6, 3, 10, 9, 5, 7, 1, 10, 7, 7, 8, 2, 5, 10, 10, 4, 8, 7, 6, 10, 4, 3, 2, 3, 8, 5, 8, 11, 7, 8, 5, 8, 6, 7, 10, 3, 5, 5, 10, 11, 4, 5, 3, 9, 1, 9, 3, 5, 10, 4, 6, 9, 5, 1, 8, 4, 7, 2, 3, 4, 7, 6, 3, 8, 6, 6, 10, 8, 9, 9, 4, 2, 9, 3, 8, 9, 5, 4, 1, 4, 5, 8, 5, 2, 3, 9, 3, 10, 7, 9, 1, 6, 9, 3, 4, 3, 7, 7, 11, 9, 1, 1, 9, 8, 8, 6, 4, 9, 9, 5, 5, 5, 1, 6, 4, 1, 2, 8, 6, 2, 6, 3, 7, 8, 7, 7, 1, 4, 5, 2, 11, 4, 14, 16, 13, 17, 15, 12, 18, 17, 16, 13, 13, 18, 17, 15, 17, 17, 16, 12, 14, 14, 17, 13, 15, 18, 16, 14, 14, 16, 15, 12, 17, 12, 19, 13, 13, 18, 13, 14, 18, 15, 12, 18, 12, 13, 17, 12, 14, 15, 17, 13, 16, 18, 16, 18, 18, 12, 12, 13, 14, 14, 18, 15, 15, 19, 15, 18, 15, 12, 13, 14, 16, 19, 15, 17, 12, 12, 16, 19, 15, 17, 19, 14, 13, 19, 17, 18, 12, 13, 13, 18, 12, 17, 13, 19, 19, 18, 18, 16, 14, 17, 18, 12, 15, 17, 16, 17, 18, 15, 13, 15, 13, 16, 19, 16, 15, 18, 14, 17, 17, 13, 13, 18, 18, 13, 14, 12, 15, 17, 17, 13, 12, 18, 13, 14, 12, 16, 13, 16, 18, 18, 15, 12, 16, 16, 17, 16, 18, 18, 18, 12, 12, 12, 12, 15, 14, 19, 19, 12, 13, 12, 17, 12, 18, 15, 17, 13, 12, 17, 14, 17, 13, 16, 14, 14, 13, 17, 14, 16, 14, 14, 17, 19, 19, 14, 14, 19, 19, 15, 16, 12, 15, 12, 15, 17, 19, 17, 16, 16, 18, 19, 13, 13, 12, 19, 14, 12, 18, 12, 12, 19, 19, 13, 17, 12, 12, 19, 18, 13, 15, 14, 17, 18, 18, 12, 12, 16, 13, 19, 18, 19, 16, 13, 15, 17, 17, 19, 17, 15, 15, 18, 14, 16, 14, 13, 18, 19, 17, 13, 19, 19];
Depot_Cap = [30000, 30000, 30000];
Tarif = [10, 3, 7];
VeicVolume = [100, 150, 200];
VeicCost = [100, 120, 140];
VeicType = [1, 1, 1, 1, 1, 1, 1, 1, 1, 1, 1, 1, 1, 1, 1, 1, 1, 1, 1, 1, 1, 1, 1, 1, 1, 1, 1, 1, 1, 1, 1, 1, 1, 1, 1, 1, 1, 1, 1, 1, 1, 1, 1, 1, 1, 1, 1, 1, 1, 1, 1, 1, 1, 1, 1, 1, 1, 1, 1, 1, 1, 1, 1, 1, 1, 1, 1, 1, 1, 1, 1, 1, 1, 1, 1, 1, 1, 1, 1, 1, 1, 1, 1, 1, 1, 1, 1, 1, 1, 1, 1, 1, 1, 1, 1, 1, 1, 1, 1, 1, 1, 1, 1, 1, 1, 1, 1, 1, 1, 1, 1, 1, 1, 1, 1, 1, 1, 1, 1, 1, 1, 1, 1, 1, 1, 1, 1, 1, 1, 1, 1, 1, 1, 1, 1, 1, 1, 1, 1, 1, 1, 1, 1, 1, 1, 1, 1, 1, 1, 1, 1, 1, 1, 1, 1, 1, 1, 1, 1, 1, 1, 1, 1, 1, 1, 1, 2, 2, 2, 2, 2, 2, 2, 2, 2, 2, 2, 2, 2, 2, 2, 2, 2, 2, 2, 2, 2, 2, 2, 2, 2, 2, 2, 2, 2, 2, 2, 2, 2, 2, 2, 2, 2, 2, 2, 2, 2, 2, 2, 2, 2, 2, 2, 2, 2, 2, 2, 2, 2, 2, 2, 2, 2, 2, 2, 2, 2, 2, 2, 2, 2, 2, 2, 2, 2, 2, 2, 2, 2, 2, 2, 2, 2, 2, 2, 2, 2, 2, 2, 2, 2, 2, 2, 2, 2, 2, 2, 2, 2, 2, 2, 2, 2, 2, 2, 2, 2, 2, 2, 2, 2, 2, 2, 2, 2, 2, 2, 2, 2, 2, 2, 2, 2, 2, 2, 2, 2, 2, 2, 2, 2, 2, 2, 2, 2, 2, 2, 2, 2, 2, 2, 2, 2, 2, 2, 2, 2, 2, 2, 2, 2, 2, 2, 2, 2, 2, 2, 2, 2, 2, 2, 2, 2, 2, 2, 2, 2, 2, 2, 2, 2, 2, 3, 3, 3, 3, 3, 3, 3, 3, 3, 3, 3, 3, 3, 3, 3, 3, 3, 3, 3, 3, 3, 3, 3, 3, 3, 3, 3, 3, 3, 3, 3, 3, 3, 3, 3, 3, 3, 3, 3, 3, 3, 3, 3, 3, 3, 3, 3, 3, 3, 3, 3, 3, 3, 3, 3, 3, 3, 3, 3, 3, 3, 3, 3, 3, 3, 3, 3, 3, 3, 3, 3, 3, 3, 3, 3, 3, 3, 3, 3, 3, 3, 3, 3, 3, 3, 3, 3, 3, 3, 3, 3, 3, 3, 3, 3, 3, 3, 3, 3, 3, 3, 3, 3, 3, 3, 3, 3, 3, 3, 3, 3, 3, 3, 3, 3, 3, 3, 3, 3, 3, 3, 3, 3, 3, 3, 3, 3, 3, 3, 3, 3, 3, 3, 3, 3, 3, 3, 3, 3, 3, 3, 3, 3, 3, 3, 3, 3, 3, 3, 3, 3, 3, 3, 3, 3, 3, 3, 3, 3, 3, 3, 3, 3, 3, 3, 3];
Elect_vehicle = [[70, 100, 30], [70, 100, 30], [70, 100, 30], [70, 100, 30], [70, 100, 30], [70, 100, 30], [70, 100, 30], [70, 100, 30], [70, 100, 30], [70, 100, 30], [70, 100, 30], [70, 100, 30], [70, 100, 30], [70, 100, 30], [70, 100, 30], [70, 100, 30], [70, 100, 30], [70, 100, 30], [70, 100, 30], [70, 100, 30], [70, 100, 30], [70, 100, 30], [70, 100, 30], [70, 100, 30], [70, 100, 30], [70, 100, 30], [70, 100, 30], [70, 100, 30], [70, 100, 30], [70, 100, 30], [70, 100, 30], [70, 100, 30], [70, 100, 30], [70, 100, 30], [70, 100, 30], [70, 100, 30], [70, 100, 30], [70, 100, 30], [70, 100, 30], [70, 100, 30], [70, 100, 30], [70, 100, 30], [70, 100, 30], [70, 100, 30], [70, 100, 30], [70, 100, 30], [70, 100, 30], [70, 100, 30], [70, 100, 30], [70, 100, 30], [70, 100, 30], [70, 100, 30], [70, 100, 30], [70, 100, 30], [70, 100, 30], [70, 100, 30], [70, 100, 30], [70, 100, 30], [70, 100, 30], [70, 100, 30], [70, 100, 30], [70, 100, 30], [70, 100, 30], [70, 100, 30], [70, 100, 30], [70, 100, 30], [70, 100, 30], [70, 100, 30], [70, 100, 30], [70, 100, 30], [70, 100, 30], [70, 100, 30], [70, 100, 30], [70, 100, 30], [70, 100, 30], [70, 100, 30], [70, 100, 30], [70, 100, 30], [70, 100, 30], [70, 100, 30], [70, 100, 30], [70, 100, 30], [70, 100, 30], [70, 100, 30], [70, 100, 30], [70, 100, 30], [70, 100, 30], [70, 100, 30], [70, 100, 30], [70, 100, 30], [70, 100, 30], [70, 100, 30], [70, 100, 30], [70, 100, 30], [70, 100, 30], [70, 100, 30], [70, 100, 30], [70, 100, 30], [70, 100, 30], [70, 100, 30], [70, 100, 30], [70, 100, 30], [70, 100, 30], [70, 100, 30], [70, 100, 30], [70, 100, 30], [70, 100, 30], [70, 100, 30], [70, 100, 30], [70, 100, 30], [70, 100, 30], [70, 100, 30], [70, 100, 30], [70, 100, 30], [70, 100, 30], [70, 100, 30], [70, 100, 30], [70, 100, 30], [70, 100, 30], [70, 100, 30], [70, 100, 30], [70, 100, 30], [70, 100, 30], [70, 100, 30], [70, 100, 30], [70, 100, 30], [70, 100, 30], [70, 100, 30], [70, 100, 30], [70, 100, 30], [70, 100, 30], [70, 100, 30], [70, 100, 30], [70, 100, 30], [70, 100, 30], [70, 100, 30], [70, 100, 30], [70, 100, 30], [70, 100, 30], [70, 100, 30], [70, 100, 30], [70, 100, 30], [70, 100, 30], [70, 100, 30], [70, 100, 30], [70, 100, 30], [70, 100, 30], [70, 100, 30], [70, 100, 30], [70, 100, 30], [70, 100, 30], [70, 100, 30], [70, 100, 30], [70, 100, 30], [70, 100, 30], [70, 100, 30], [70, 100, 30], [70, 100, 30], [70, 100, 30], [70, 100, 30], [70, 100, 30], [70, 100, 30], [70, 100, 30], [70, 100, 30], [70, 100, 30], [70, 100, 30], [80, 120, 30], [80, 120, 30], [80, 120, 30], [80, 120, 30], [80, 120, 30], [80, 120, 30], [80, 120, 30], [80, 120, 30], [80, 120, 30], [80, 120, 30], [80, 120, 30], [80, 120, 30], [80, 120, 30], [80, 120, 30], [80, 120, 30], [80, 120, 30], [80, 120, 30], [80, 120, 30], [80, 120, 30], [80, 120, 30], [80, 120, 30], [80, 120, 30], [80, 120, 30], [80, 120, 30], [80, 120, 30], [80, 120, 30], [80, 120, 30], [80, 120, 30], [80, 120, 30], [80, 120, 30], [80, 120, 30], [80, 120, 30], [80, 120, 30], [80, 120, 30], [80, 120, 30], [80, 120, 30], [80, 120, 30], [80, 120, 30], [80, 120, 30], [80, 120, 30], [80, 120, 30], [80, 120, 30], [80, 120, 30], [80, 120, 30], [80, 120, 30], [80, 120, 30], [80, 120, 30], [80, 120, 30], [80, 120, 30], [80, 120, 30], [80, 120, 30], [80, 120, 30], [80, 120, 30], [80, 120, 30], [80, 120, 30], [80, 120, 30], [80, 120, 30], [80, 120, 30], [80, 120, 30], [80, 120, 30], [80, 120, 30], [80, 120, 30], [80, 120, 30], [80, 120, 30], [80, 120, 30], [80, 120, 30], [80, 120, 30], [80, 120, 30], [80, 120, 30], [80, 120, 30], [80, 120, 30], [80, 120, 30], [80, 120, 30], [80, 120, 30], [80, 120, 30], [80, 120, 30], [80, 120, 30], [80, 120, 30], [80, 120, 30], [80, 120, 30], [80, 120, 30], [80, 120, 30], [80, 120, 30], [80, 120, 30], [80, 120, 30], [80, 120, 30], [80, 120, 30], [80, 120, 30], [80, 120, 30], [80, 120, 30], [80, 120, 30], [80, 120, 30], [80, 120, 30], [80, 120, 30], [80, 120, 30], [80, 120, 30], [80, 120, 30], [80, 120, 30], [80, 120, 30], [80, 120, 30], [80, 120, 30], [80, 120, 30], [80, 120, 30], [80, 120, 30], [80, 120, 30], [80, 120, 30], [80, 120, 30], [80, 120, 30], [80, 120, 30], [80, 120, 30], [80, 120, 30], [80, 120, 30], [80, 120, 30], [80, 120, 30], [80, 120, 30], [80, 120, 30], [80, 120, 30], [80, 120, 30], [80, 120, 30], [80, 120, 30], [80, 120, 30], [80, 120, 30], [80, 120, 30], [80, 120, 30], [80, 120, 30], [80, 120, 30], [80, 120, 30], [80, 120, 30], [80, 120, 30], [80, 120, 30], [80, 120, 30], [80, 120, 30], [80, 120, 30], [80, 120, 30], [80, 120, 30], [80, 120, 30], [80, 120, 30], [80, 120, 30], [80, 120, 30], [80, 120, 30], [80, 120, 30], [80, 120, 30], [80, 120, 30], [80, 120, 30], [80, 120, 30], [80, 120, 30], [80, 120, 30], [80, 120, 30], [80, 120, 30], [80, 120, 30], [80, 120, 30], [80, 120, 30], [80, 120, 30], [80, 120, 30], [80, 120, 30], [80, 120, 30], [80, 120, 30], [80, 120, 30], [80, 120, 30], [80, 120, 30], [80, 120, 30], [80, 120, 30], [80, 120, 30], [80, 120, 30], [80, 120, 30], [80, 120, 30], [90, 140, 40], [90, 140, 40], [90, 140, 40], [90, 140, 40], [90, 140, 40], [90, 140, 40], [90, 140, 40], [90, 140, 40], [90, 140, 40], [90, 140, 40], [90, 140, 40], [90, 140, 40], [90, 140, 40], [90, 140, 40], [90, 140, 40], [90, 140, 40], [90, 140, 40], [90, 140, 40], [90, 140, 40], [90, 140, 40], [90, 140, 40], [90, 140, 40], [90, 140, 40], [90, 140, 40], [90, 140, 40], [90, 140, 40], [90, 140, 40], [90, 140, 40], [90, 140, 40], [90, 140, 40], [90, 140, 40], [90, 140, 40], [90, 140, 40], [90, 140, 40], [90, 140, 40], [90, 140, 40], [90, 140, 40], [90, 140, 40], [90, 140, 40], [90, 140, 40], [90, 140, 40], [90, 140, 40], [90, 140, 40], [90, 140, 40], [90, 140, 40], [90, 140, 40], [90, 140, 40], [90, 140, 40], [90, 140, 40], [90, 140, 40], [90, 140, 40], [90, 140, 40], [90, 140, 40], [90, 140, 40], [90, 140, 40], [90, 140, 40], [90, 140, 40], [90, 140, 40], [90, 140, 40], [90, 140, 40], [90, 140, 40], [90, 140, 40], [90, 140, 40], [90, 140, 40], [90, 140, 40], [90, 140, 40], [90, 140, 40], [90, 140, 40], [90, 140, 40], [90, 140, 40], [90, 140, 40], [90, 140, 40], [90, 140, 40], [90, 140, 40], [90, 140, 40], [90, 140, 40], [90, 140, 40], [90, 140, 40], [90, 140, 40], [90, 140, 40], [90, 140, 40], [90, 140, 40], [90, 140, 40], [90, 140, 40], [90, 140, 40], [90, 140, 40], [90, 140, 40], [90, 140, 40], [90, 140, 40], [90, 140, 40], [90, 140, 40], [90, 140, 40], [90, 140, 40], [90, 140, 40], [90, 140, 40], [90, 140, 40], [90, 140, 40], [90, 140, 40], [90, 140, 40], [90, 140, 40], [90, 140, 40], [90, 140, 40], [90, 140, 40], [90, 140, 40], [90, 140, 40], [90, 140, 40], [90, 140, 40], [90, 140, 40], [90, 140, 40], [90, 140, 40], [90, 140, 40], [90, 140, 40], [90, 140, 40], [90, 140, 40], [90, 140, 40], [90, 140, 40], [90, 140, 40], [90, 140, 40], [90, 140, 40], [90, 140, 40], [90, 140, 40], [90, 140, 40], [90, 140, 40], [90, 140, 40], [90, 140, 40], [90, 140, 40], [90, 140, 40], [90, 140, 40], [90, 140, 40], [90, 140, 40], [90, 140, 40], [90, 140, 40], [90, 140, 40], [90, 140, 40], [90, 140, 40], [90, 140, 40], [90, 140, 40], [90, 140, 40], [90, 140, 40], [90, 140, 40], [90, 140, 40], [90, 140, 40], [90, 140, 40], [90, 140, 40], [90, 140, 40], [90, 140, 40], [90, 140, 40], [90, 140, 40], [90, 140, 40], [90, 140, 40], [90, 140, 40], [90, 140, 40], [90, 140, 40], [90, 140, 40], [90, 140, 40], [90, 140, 40], [90, 140, 40], [90, 140, 40], [90, 140, 40], [90, 140, 40], [90, 140, 40], [90, 140, 40], [90, 140, 40], [90, 140, 40], [90, 140, 40], [90, 140, 40]];